p cnf 2894
-27 -99
-28 -141
-29 1
-30 -183
-31 2
-32 3
-33 4
-34 -225
-35 5
-36 6
-37 7
-38 8
-39 9
-40 10
-41 11
-42 -267
-43 12
-44 13
-45 14
-46 15
-47 16
-48 17
-49 18
-50 19
-51 20
-52 21
-53 22
-54 23
-55 24
-56 25
-57 26
-58 1
-58 -2
-1 2 58
-59 -1
-59 2
1 -2 59
-60 -58
-60 -59
58 59 60
-61 -4
-61 -60
4 60 61
-62 4
-62 60
-4 -60 62
-63 -61
-63 -62
61 62 63
-64 -5
-64 -63
5 63 64
-65 5
-65 63
-5 -63 65
-66 -64
-66 -65
64 65 66
-67 -7
-67 -66
7 66 67
-68 7
-68 66
-7 -66 68
-69 -67
-69 -68
67 68 69
-70 -9
-70 -69
9 69 70
-71 9
-71 69
-9 -69 71
-72 -70
-72 -71
70 71 72
-73 -11
-73 -72
11 72 73
-74 11
-74 72
-11 -72 74
-75 -73
-75 -74
73 74 75
-76 -12
-76 -75
12 75 76
-77 12
-77 75
-12 -75 77
-78 -76
-78 -77
76 77 78
-79 -14
-79 -78
14 78 79
-80 14
-80 78
-14 -78 80
-81 -79
-81 -80
79 80 81
-82 -16
-82 -81
16 81 82
-83 16
-83 81
-16 -81 83
-84 -82
-84 -83
82 83 84
-85 -18
-85 -84
18 84 85
-86 18
-86 84
-18 -84 86
-87 -85
-87 -86
85 86 87
-88 -20
-88 -87
20 87 88
-89 20
-89 87
-20 -87 89
-90 -88
-90 -89
88 89 90
-91 -22
-91 -90
22 90 91
-92 22
-92 90
-22 -90 92
-93 -91
-93 -92
91 92 93
-94 -24
-94 -93
24 93 94
-95 24
-95 93
-24 -93 95
-96 -94
-96 -95
94 95 96
-97 -26
-97 -96
26 96 97
-98 26
-98 96
-26 -96 98
-99 -97
-99 -98
97 98 99
-100 1
-100 -3
-1 3 100
-101 -1
-101 3
1 -3 101
-102 -100
-102 -101
100 101 102
-103 -4
-103 -102
4 102 103
-104 4
-104 102
-4 -102 104
-105 -103
-105 -104
103 104 105
-106 -6
-106 -105
6 105 106
-107 6
-107 105
-6 -105 107
-108 -106
-108 -107
106 107 108
-109 -7
-109 -108
7 108 109
-110 7
-110 108
-7 -108 110
-111 -109
-111 -110
109 110 111
-112 -10
-112 -111
10 111 112
-113 10
-113 111
-10 -111 113
-114 -112
-114 -113
112 113 114
-115 -11
-115 -114
11 114 115
-116 11
-116 114
-11 -114 116
-117 -115
-117 -116
115 116 117
-118 -13
-118 -117
13 117 118
-119 13
-119 117
-13 -117 119
-120 -118
-120 -119
118 119 120
-121 -14
-121 -120
14 120 121
-122 14
-122 120
-14 -120 122
-123 -121
-123 -122
121 122 123
-124 -17
-124 -123
17 123 124
-125 17
-125 123
-17 -123 125
-126 -124
-126 -125
124 125 126
-127 -18
-127 -126
18 126 127
-128 18
-128 126
-18 -126 128
-129 -127
-129 -128
127 128 129
-130 -21
-130 -129
21 129 130
-131 21
-131 129
-21 -129 131
-132 -130
-132 -131
130 131 132
-133 -22
-133 -132
22 132 133
-134 22
-134 132
-22 -132 134
-135 -133
-135 -134
133 134 135
-136 -25
-136 -135
25 135 136
-137 25
-137 135
-25 -135 137
-138 -136
-138 -137
136 137 138
-139 -26
-139 -138
26 138 139
-140 26
-140 138
-26 -138 140
-141 -139
-141 -140
139 140 141
-142 2
-142 -3
-2 3 142
-143 -2
-143 3
2 -3 143
-144 -142
-144 -143
142 143 144
-145 -4
-145 -144
4 144 145
-146 4
-146 144
-4 -144 146
-147 -145
-147 -146
145 146 147
-148 -8
-148 -147
8 147 148
-149 8
-149 147
-8 -147 149
-150 -148
-150 -149
148 149 150
-151 -9
-151 -150
9 150 151
-152 9
-152 150
-9 -150 152
-153 -151
-153 -152
151 152 153
-154 -10
-154 -153
10 153 154
-155 10
-155 153
-10 -153 155
-156 -154
-156 -155
154 155 156
-157 -11
-157 -156
11 156 157
-158 11
-158 156
-11 -156 158
-159 -157
-159 -158
157 158 159
-160 -15
-160 -159
15 159 160
-161 15
-161 159
-15 -159 161
-162 -160
-162 -161
160 161 162
-163 -16
-163 -162
16 162 163
-164 16
-164 162
-16 -162 164
-165 -163
-165 -164
163 164 165
-166 -17
-166 -165
17 165 166
-167 17
-167 165
-17 -165 167
-168 -166
-168 -167
166 167 168
-169 -18
-169 -168
18 168 169
-170 18
-170 168
-18 -168 170
-171 -169
-171 -170
169 170 171
-172 -23
-172 -171
23 171 172
-173 23
-173 171
-23 -171 173
-174 -172
-174 -173
172 173 174
-175 -24
-175 -174
24 174 175
-176 24
-176 174
-24 -174 176
-177 -175
-177 -176
175 176 177
-178 -25
-178 -177
25 177 178
-179 25
-179 177
-25 -177 179
-180 -178
-180 -179
178 179 180
-181 -26
-181 -180
26 180 181
-182 26
-182 180
-26 -180 182
-183 -181
-183 -182
181 182 183
-184 5
-184 -6
-5 6 184
-185 -5
-185 6
5 -6 185
-186 -184
-186 -185
184 185 186
-187 -7
-187 -186
7 186 187
-188 7
-188 186
-7 -186 188
-189 -187
-189 -188
187 188 189
-190 -8
-190 -189
8 189 190
-191 8
-191 189
-8 -189 191
-192 -190
-192 -191
190 191 192
-193 -9
-193 -192
9 192 193
-194 9
-194 192
-9 -192 194
-195 -193
-195 -194
193 194 195
-196 -10
-196 -195
10 195 196
-197 10
-197 195
-10 -195 197
-198 -196
-198 -197
196 197 198
-199 -11
-199 -198
11 198 199
-200 11
-200 198
-11 -198 200
-201 -199
-201 -200
199 200 201
-202 -19
-202 -201
19 201 202
-203 19
-203 201
-19 -201 203
-204 -202
-204 -203
202 203 204
-205 -20
-205 -204
20 204 205
-206 20
-206 204
-20 -204 206
-207 -205
-207 -206
205 206 207
-208 -21
-208 -207
21 207 208
-209 21
-209 207
-21 -207 209
-210 -208
-210 -209
208 209 210
-211 -22
-211 -210
22 210 211
-212 22
-212 210
-22 -210 212
-213 -211
-213 -212
211 212 213
-214 -23
-214 -213
23 213 214
-215 23
-215 213
-23 -213 215
-216 -214
-216 -215
214 215 216
-217 -24
-217 -216
24 216 217
-218 24
-218 216
-24 -216 218
-219 -217
-219 -218
217 218 219
-220 -25
-220 -219
25 219 220
-221 25
-221 219
-25 -219 221
-222 -220
-222 -221
220 221 222
-223 -26
-223 -222
26 222 223
-224 26
-224 222
-26 -222 224
-225 -223
-225 -224
223 224 225
-226 12
-226 -13
-12 13 226
-227 -12
-227 13
12 -13 227
-228 -226
-228 -227
226 227 228
-229 -14
-229 -228
14 228 229
-230 14
-230 228
-14 -228 230
-231 -229
-231 -230
229 230 231
-232 -15
-232 -231
15 231 232
-233 15
-233 231
-15 -231 233
-234 -232
-234 -233
232 233 234
-235 -16
-235 -234
16 234 235
-236 16
-236 234
-16 -234 236
-237 -235
-237 -236
235 236 237
-238 -17
-238 -237
17 237 238
-239 17
-239 237
-17 -237 239
-240 -238
-240 -239
238 239 240
-241 -18
-241 -240
18 240 241
-242 18
-242 240
-18 -240 242
-243 -241
-243 -242
241 242 243
-244 -19
-244 -243
19 243 244
-245 19
-245 243
-19 -243 245
-246 -244
-246 -245
244 245 246
-247 -20
-247 -246
20 246 247
-248 20
-248 246
-20 -246 248
-249 -247
-249 -248
247 248 249
-250 -21
-250 -249
21 249 250
-251 21
-251 249
-21 -249 251
-252 -250
-252 -251
250 251 252
-253 -22
-253 -252
22 252 253
-254 22
-254 252
-22 -252 254
-255 -253
-255 -254
253 254 255
-256 -23
-256 -255
23 255 256
-257 23
-257 255
-23 -255 257
-258 -256
-258 -257
256 257 258
-259 -24
-259 -258
24 258 259
-260 24
-260 258
-24 -258 260
-261 -259
-261 -260
259 260 261
-262 -25
-262 -261
25 261 262
-263 25
-263 261
-25 -261 263
-264 -262
-264 -263
262 263 264
-265 -26
-265 -264
26 264 265
-266 26
-266 264
-26 -264 266
-267 -265
-267 -266
265 266 267
-268 -27
-268 -99
27 99 268
-269 27
-269 99
-27 -99 269
-270 -268
-270 -269
268 269 270
-271 -28
-271 -141
28 141 271
-272 28
-272 141
-28 -141 272
-273 -271
-273 -272
271 272 273
-274 1
-274 -29
-1 29 274
-275 -1
-275 29
1 -29 275
-276 -274
-276 -275
274 275 276
-277 -30
-277 -183
30 183 277
-278 30
-278 183
-30 -183 278
-279 -277
-279 -278
277 278 279
-280 2
-280 -31
-2 31 280
-281 -2
-281 31
2 -31 281
-282 -280
-282 -281
280 281 282
-283 3
-283 -32
-3 32 283
-284 -3
-284 32
3 -32 284
-285 -283
-285 -284
283 284 285
-286 4
-286 -33
-4 33 286
-287 -4
-287 33
4 -33 287
-288 -286
-288 -287
286 287 288
-289 -34
-289 -225
34 225 289
-290 34
-290 225
-34 -225 290
-291 -289
-291 -290
289 290 291
-292 5
-292 -35
-5 35 292
-293 -5
-293 35
5 -35 293
-294 -292
-294 -293
292 293 294
-295 6
-295 -36
-6 36 295
-296 -6
-296 36
6 -36 296
-297 -295
-297 -296
295 296 297
-298 7
-298 -37
-7 37 298
-299 -7
-299 37
7 -37 299
-300 -298
-300 -299
298 299 300
-301 8
-301 -38
-8 38 301
-302 -8
-302 38
8 -38 302
-303 -301
-303 -302
301 302 303
-304 9
-304 -39
-9 39 304
-305 -9
-305 39
9 -39 305
-306 -304
-306 -305
304 305 306
-307 10
-307 -40
-10 40 307
-308 -10
-308 40
10 -40 308
-309 -307
-309 -308
307 308 309
-310 11
-310 -41
-11 41 310
-311 -11
-311 41
11 -41 311
-312 -310
-312 -311
310 311 312
-313 -42
-313 -267
42 267 313
-314 42
-314 267
-42 -267 314
-315 -313
-315 -314
313 314 315
-316 12
-316 -43
-12 43 316
-317 -12
-317 43
12 -43 317
-318 -316
-318 -317
316 317 318
-319 13
-319 -44
-13 44 319
-320 -13
-320 44
13 -44 320
-321 -319
-321 -320
319 320 321
-322 14
-322 -45
-14 45 322
-323 -14
-323 45
14 -45 323
-324 -322
-324 -323
322 323 324
-325 15
-325 -46
-15 46 325
-326 -15
-326 46
15 -46 326
-327 -325
-327 -326
325 326 327
-328 16
-328 -47
-16 47 328
-329 -16
-329 47
16 -47 329
-330 -328
-330 -329
328 329 330
-331 17
-331 -48
-17 48 331
-332 -17
-332 48
17 -48 332
-333 -331
-333 -332
331 332 333
-334 18
-334 -49
-18 49 334
-335 -18
-335 49
18 -49 335
-336 -334
-336 -335
334 335 336
-337 19
-337 -50
-19 50 337
-338 -19
-338 50
19 -50 338
-339 -337
-339 -338
337 338 339
-340 20
-340 -51
-20 51 340
-341 -20
-341 51
20 -51 341
-342 -340
-342 -341
340 341 342
-343 21
-343 -52
-21 52 343
-344 -21
-344 52
21 -52 344
-345 -343
-345 -344
343 344 345
-346 22
-346 -53
-22 53 346
-347 -22
-347 53
22 -53 347
-348 -346
-348 -347
346 347 348
-349 23
-349 -54
-23 54 349
-350 -23
-350 54
23 -54 350
-351 -349
-351 -350
349 350 351
-352 24
-352 -55
-24 55 352
-353 -24
-353 55
24 -55 353
-354 -352
-354 -353
352 353 354
-355 25
-355 -56
-25 56 355
-356 -25
-356 56
25 -56 356
-357 -355
-357 -356
355 356 357
-358 26
-358 -57
-26 57 358
-359 -26
-359 57
26 -57 359
-360 -358
-360 -359
358 359 360
-361 -270
-361 273
270 -273 361
-362 270
-362 -273
-270 273 362
-363 -361
-363 -362
361 362 363
-364 -270
-364 -273
270 273 364
-365 276
-365 -363
-276 363 365
-366 -276
-366 363
276 -363 366
-367 -365
-367 -366
365 366 367
-368 -276
-368 -363
276 363 368
-369 364
-369 -368
-364 368 369
-370 -364
-370 368
364 -368 370
-371 -369
-371 -370
369 370 371
-372 364
-372 368
-364 -368 372
-373 279
-373 -367
-279 367 373
-374 -279
-374 367
279 -367 374
-375 -373
-375 -374
373 374 375
-376 -279
-376 -367
279 367 376
-377 -372
-377 -375
372 375 377
-378 372
-378 375
-372 -375 378
-379 -377
-379 -378
377 378 379
-380 372
-380 -375
-372 375 380
-381 -376
-381 -380
376 380 381
-382 -371
-382 381
371 -381 382
-383 371
-383 -381
-371 381 383
-384 -382
-384 -383
382 383 384
-385 -371
-385 -381
371 381 385
-386 282
-386 -379
-282 379 386
-387 -282
-387 379
282 -379 387
-388 -386
-388 -387
386 387 388
-389 -282
-389 -379
282 379 389
-390 -384
-390 -389
384 389 390
-391 384
-391 389
-384 -389 391
-392 -390
-392 -391
390 391 392
-393 -384
-393 389
384 -389 393
-394 385
-394 -393
-385 393 394
-395 -385
-395 393
385 -393 395
-396 -394
-396 -395
394 395 396
-397 385
-397 393
-385 -393 397
-398 285
-398 -388
-285 388 398
-399 -285
-399 388
285 -388 399
-400 -398
-400 -399
398 399 400
-401 -285
-401 -388
285 388 401
-402 -397
-402 -400
397 400 402
-403 397
-403 400
-397 -400 403
-404 -402
-404 -403
402 403 404
-405 397
-405 -400
-397 400 405
-406 -401
-406 -405
401 405 406
-407 -392
-407 406
392 -406 407
-408 392
-408 -406
-392 406 408
-409 -407
-409 -408
407 408 409
-410 -392
-410 -406
392 406 410
-411 -396
-411 -410
396 410 411
-412 396
-412 410
-396 -410 412
-413 -411
-413 -412
411 412 413
-414 -396
-414 410
396 -410 414
-415 288
-415 -404
-288 404 415
-416 -288
-416 404
288 -404 416
-417 -415
-417 -416
415 416 417
-418 -288
-418 -404
288 404 418
-419 -414
-419 -417
414 417 419
-420 414
-420 417
-414 -417 420
-421 -419
-421 -420
419 420 421
-422 414
-422 -417
-414 417 422
-423 -418
-423 -422
418 422 423
-424 -409
-424 423
409 -423 424
-425 409
-425 -423
-409 423 425
-426 -424
-426 -425
424 425 426
-427 -409
-427 -423
409 423 427
-428 -413
-428 -427
413 427 428
-429 413
-429 427
-413 -427 429
-430 -428
-430 -429
428 429 430
-431 -413
-431 427
413 -427 431
-432 291
-432 -421
-291 421 432
-433 -291
-433 421
291 -421 433
-434 -432
-434 -433
432 433 434
-435 -291
-435 -421
291 421 435
-436 -431
-436 -434
431 434 436
-437 431
-437 434
-431 -434 437
-438 -436
-438 -437
436 437 438
-439 431
-439 -434
-431 434 439
-440 -435
-440 -439
435 439 440
-441 -426
-441 440
426 -440 441
-442 426
-442 -440
-426 440 442
-443 -441
-443 -442
441 442 443
-444 -426
-444 -440
426 440 444
-445 -430
-445 -444
430 444 445
-446 430
-446 444
-430 -444 446
-447 -445
-447 -446
445 446 447
-448 -430
-448 444
430 -444 448
-449 294
-449 -438
-294 438 449
-450 -294
-450 438
294 -438 450
-451 -449
-451 -450
449 450 451
-452 -294
-452 -438
294 438 452
-453 -443
-453 -452
443 452 453
-454 443
-454 452
-443 -452 454
-455 -453
-455 -454
453 454 455
-456 -443
-456 452
443 -452 456
-457 -447
-457 -456
447 456 457
-458 447
-458 456
-447 -456 458
-459 -457
-459 -458
457 458 459
-460 -447
-460 456
447 -456 460
-461 448
-461 -460
-448 460 461
-462 -448
-462 460
448 -460 462
-463 -461
-463 -462
461 462 463
-464 448
-464 460
-448 -460 464
-465 297
-465 -451
-297 451 465
-466 -297
-466 451
297 -451 466
-467 -465
-467 -466
465 466 467
-468 -297
-468 -451
297 451 468
-469 -464
-469 -467
464 467 469
-470 464
-470 467
-464 -467 470
-471 -469
-471 -470
469 470 471
-472 464
-472 -467
-464 467 472
-473 -468
-473 -472
468 472 473
-474 -455
-474 473
455 -473 474
-475 455
-475 -473
-455 473 475
-476 -474
-476 -475
474 475 476
-477 -455
-477 -473
455 473 477
-478 -459
-478 -477
459 477 478
-479 459
-479 477
-459 -477 479
-480 -478
-480 -479
478 479 480
-481 -459
-481 477
459 -477 481
-482 -463
-482 -481
463 481 482
-483 463
-483 481
-463 -481 483
-484 -482
-484 -483
482 483 484
-485 -463
-485 481
463 -481 485
-486 300
-486 -471
-300 471 486
-487 -300
-487 471
300 -471 487
-488 -486
-488 -487
486 487 488
-489 -300
-489 -471
300 471 489
-490 -485
-490 -488
485 488 490
-491 485
-491 488
-485 -488 491
-492 -490
-492 -491
490 491 492
-493 485
-493 -488
-485 488 493
-494 -489
-494 -493
489 493 494
-495 -476
-495 494
476 -494 495
-496 476
-496 -494
-476 494 496
-497 -495
-497 -496
495 496 497
-498 -476
-498 -494
476 494 498
-499 -480
-499 -498
480 498 499
-500 480
-500 498
-480 -498 500
-501 -499
-501 -500
499 500 501
-502 -480
-502 498
480 -498 502
-503 -484
-503 -502
484 502 503
-504 484
-504 502
-484 -502 504
-505 -503
-505 -504
503 504 505
-506 -484
-506 502
484 -502 506
-507 303
-507 -492
-303 492 507
-508 -303
-508 492
303 -492 508
-509 -507
-509 -508
507 508 509
-510 -303
-510 -492
303 492 510
-511 -506
-511 -509
506 509 511
-512 506
-512 509
-506 -509 512
-513 -511
-513 -512
511 512 513
-514 506
-514 -509
-506 509 514
-515 -510
-515 -514
510 514 515
-516 -497
-516 515
497 -515 516
-517 497
-517 -515
-497 515 517
-518 -516
-518 -517
516 517 518
-519 -497
-519 -515
497 515 519
-520 -501
-520 -519
501 519 520
-521 501
-521 519
-501 -519 521
-522 -520
-522 -521
520 521 522
-523 -501
-523 519
501 -519 523
-524 -505
-524 -523
505 523 524
-525 505
-525 523
-505 -523 525
-526 -524
-526 -525
524 525 526
-527 -505
-527 523
505 -523 527
-528 306
-528 -513
-306 513 528
-529 -306
-529 513
306 -513 529
-530 -528
-530 -529
528 529 530
-531 -306
-531 -513
306 513 531
-532 -527
-532 -530
527 530 532
-533 527
-533 530
-527 -530 533
-534 -532
-534 -533
532 533 534
-535 527
-535 -530
-527 530 535
-536 -531
-536 -535
531 535 536
-537 -518
-537 536
518 -536 537
-538 518
-538 -536
-518 536 538
-539 -537
-539 -538
537 538 539
-540 -518
-540 -536
518 536 540
-541 -522
-541 -540
522 540 541
-542 522
-542 540
-522 -540 542
-543 -541
-543 -542
541 542 543
-544 -522
-544 540
522 -540 544
-545 -526
-545 -544
526 544 545
-546 526
-546 544
-526 -544 546
-547 -545
-547 -546
545 546 547
-548 -526
-548 544
526 -544 548
-549 309
-549 -534
-309 534 549
-550 -309
-550 534
309 -534 550
-551 -549
-551 -550
549 550 551
-552 -309
-552 -534
309 534 552
-553 -548
-553 -551
548 551 553
-554 548
-554 551
-548 -551 554
-555 -553
-555 -554
553 554 555
-556 548
-556 -551
-548 551 556
-557 -552
-557 -556
552 556 557
-558 -539
-558 557
539 -557 558
-559 539
-559 -557
-539 557 559
-560 -558
-560 -559
558 559 560
-561 -539
-561 -557
539 557 561
-562 -543
-562 -561
543 561 562
-563 543
-563 561
-543 -561 563
-564 -562
-564 -563
562 563 564
-565 -543
-565 561
543 -561 565
-566 -547
-566 -565
547 565 566
-567 547
-567 565
-547 -565 567
-568 -566
-568 -567
566 567 568
-569 -547
-569 565
547 -565 569
-570 312
-570 -555
-312 555 570
-571 -312
-571 555
312 -555 571
-572 -570
-572 -571
570 571 572
-573 -312
-573 -555
312 555 573
-574 -569
-574 -572
569 572 574
-575 569
-575 572
-569 -572 575
-576 -574
-576 -575
574 575 576
-577 569
-577 -572
-569 572 577
-578 -573
-578 -577
573 577 578
-579 -560
-579 578
560 -578 579
-580 560
-580 -578
-560 578 580
-581 -579
-581 -580
579 580 581
-582 -560
-582 -578
560 578 582
-583 -564
-583 -582
564 582 583
-584 564
-584 582
-564 -582 584
-585 -583
-585 -584
583 584 585
-586 -564
-586 582
564 -582 586
-587 -568
-587 -586
568 586 587
-588 568
-588 586
-568 -586 588
-589 -587
-589 -588
587 588 589
-590 -568
-590 586
568 -586 590
-591 315
-591 -576
-315 576 591
-592 -315
-592 576
315 -576 592
-593 -591
-593 -592
591 592 593
-594 -315
-594 -576
315 576 594
-595 -590
-595 -593
590 593 595
-596 590
-596 593
-590 -593 596
-597 -595
-597 -596
595 596 597
-598 590
-598 -593
-590 593 598
-599 -594
-599 -598
594 598 599
-600 -581
-600 599
581 -599 600
-601 581
-601 -599
-581 599 601
-602 -600
-602 -601
600 601 602
-603 -581
-603 -599
581 599 603
-604 -585
-604 -603
585 603 604
-605 585
-605 603
-585 -603 605
-606 -604
-606 -605
604 605 606
-607 -585
-607 603
585 -603 607
-608 -589
-608 -607
589 607 608
-609 589
-609 607
-589 -607 609
-610 -608
-610 -609
608 609 610
-611 -589
-611 607
589 -607 611
-612 318
-612 -597
-318 597 612
-613 -318
-613 597
318 -597 613
-614 -612
-614 -613
612 613 614
-615 -318
-615 -597
318 597 615
-616 -602
-616 -615
602 615 616
-617 602
-617 615
-602 -615 617
-618 -616
-618 -617
616 617 618
-619 -602
-619 615
602 -615 619
-620 -606
-620 -619
606 619 620
-621 606
-621 619
-606 -619 621
-622 -620
-622 -621
620 621 622
-623 -606
-623 619
606 -619 623
-624 -610
-624 -623
610 623 624
-625 610
-625 623
-610 -623 625
-626 -624
-626 -625
624 625 626
-627 -610
-627 623
610 -623 627
-628 611
-628 -627
-611 627 628
-629 -611
-629 627
611 -627 629
-630 -628
-630 -629
628 629 630
-631 611
-631 627
-611 -627 631
-632 321
-632 -614
-321 614 632
-633 -321
-633 614
321 -614 633
-634 -632
-634 -633
632 633 634
-635 -321
-635 -614
321 614 635
-636 -631
-636 -634
631 634 636
-637 631
-637 634
-631 -634 637
-638 -636
-638 -637
636 637 638
-639 631
-639 -634
-631 634 639
-640 -635
-640 -639
635 639 640
-641 -618
-641 640
618 -640 641
-642 618
-642 -640
-618 640 642
-643 -641
-643 -642
641 642 643
-644 -618
-644 -640
618 640 644
-645 -622
-645 -644
622 644 645
-646 622
-646 644
-622 -644 646
-647 -645
-647 -646
645 646 647
-648 -622
-648 644
622 -644 648
-649 -626
-649 -648
626 648 649
-650 626
-650 648
-626 -648 650
-651 -649
-651 -650
649 650 651
-652 -626
-652 648
626 -648 652
-653 -630
-653 -652
630 652 653
-654 630
-654 652
-630 -652 654
-655 -653
-655 -654
653 654 655
-656 -630
-656 652
630 -652 656
-657 324
-657 -638
-324 638 657
-658 -324
-658 638
324 -638 658
-659 -657
-659 -658
657 658 659
-660 -324
-660 -638
324 638 660
-661 -656
-661 -659
656 659 661
-662 656
-662 659
-656 -659 662
-663 -661
-663 -662
661 662 663
-664 656
-664 -659
-656 659 664
-665 -660
-665 -664
660 664 665
-666 -643
-666 665
643 -665 666
-667 643
-667 -665
-643 665 667
-668 -666
-668 -667
666 667 668
-669 -643
-669 -665
643 665 669
-670 -647
-670 -669
647 669 670
-671 647
-671 669
-647 -669 671
-672 -670
-672 -671
670 671 672
-673 -647
-673 669
647 -669 673
-674 -651
-674 -673
651 673 674
-675 651
-675 673
-651 -673 675
-676 -674
-676 -675
674 675 676
-677 -651
-677 673
651 -673 677
-678 -655
-678 -677
655 677 678
-679 655
-679 677
-655 -677 679
-680 -678
-680 -679
678 679 680
-681 -655
-681 677
655 -677 681
-682 327
-682 -663
-327 663 682
-683 -327
-683 663
327 -663 683
-684 -682
-684 -683
682 683 684
-685 -327
-685 -663
327 663 685
-686 -681
-686 -684
681 684 686
-687 681
-687 684
-681 -684 687
-688 -686
-688 -687
686 687 688
-689 681
-689 -684
-681 684 689
-690 -685
-690 -689
685 689 690
-691 -668
-691 690
668 -690 691
-692 668
-692 -690
-668 690 692
-693 -691
-693 -692
691 692 693
-694 -668
-694 -690
668 690 694
-695 -672
-695 -694
672 694 695
-696 672
-696 694
-672 -694 696
-697 -695
-697 -696
695 696 697
-698 -672
-698 694
672 -694 698
-699 -676
-699 -698
676 698 699
-700 676
-700 698
-676 -698 700
-701 -699
-701 -700
699 700 701
-702 -676
-702 698
676 -698 702
-703 -680
-703 -702
680 702 703
-704 680
-704 702
-680 -702 704
-705 -703
-705 -704
703 704 705
-706 -680
-706 702
680 -702 706
-707 330
-707 -688
-330 688 707
-708 -330
-708 688
330 -688 708
-709 -707
-709 -708
707 708 709
-710 -330
-710 -688
330 688 710
-711 -706
-711 -709
706 709 711
-712 706
-712 709
-706 -709 712
-713 -711
-713 -712
711 712 713
-714 706
-714 -709
-706 709 714
-715 -710
-715 -714
710 714 715
-716 -693
-716 715
693 -715 716
-717 693
-717 -715
-693 715 717
-718 -716
-718 -717
716 717 718
-719 -693
-719 -715
693 715 719
-720 -697
-720 -719
697 719 720
-721 697
-721 719
-697 -719 721
-722 -720
-722 -721
720 721 722
-723 -697
-723 719
697 -719 723
-724 -701
-724 -723
701 723 724
-725 701
-725 723
-701 -723 725
-726 -724
-726 -725
724 725 726
-727 -701
-727 723
701 -723 727
-728 -705
-728 -727
705 727 728
-729 705
-729 727
-705 -727 729
-730 -728
-730 -729
728 729 730
-731 -705
-731 727
705 -727 731
-732 333
-732 -713
-333 713 732
-733 -333
-733 713
333 -713 733
-734 -732
-734 -733
732 733 734
-735 -333
-735 -713
333 713 735
-736 -731
-736 -734
731 734 736
-737 731
-737 734
-731 -734 737
-738 -736
-738 -737
736 737 738
-739 731
-739 -734
-731 734 739
-740 -735
-740 -739
735 739 740
-741 -718
-741 740
718 -740 741
-742 718
-742 -740
-718 740 742
-743 -741
-743 -742
741 742 743
-744 -718
-744 -740
718 740 744
-745 -722
-745 -744
722 744 745
-746 722
-746 744
-722 -744 746
-747 -745
-747 -746
745 746 747
-748 -722
-748 744
722 -744 748
-749 -726
-749 -748
726 748 749
-750 726
-750 748
-726 -748 750
-751 -749
-751 -750
749 750 751
-752 -726
-752 748
726 -748 752
-753 -730
-753 -752
730 752 753
-754 730
-754 752
-730 -752 754
-755 -753
-755 -754
753 754 755
-756 -730
-756 752
730 -752 756
-757 336
-757 -738
-336 738 757
-758 -336
-758 738
336 -738 758
-759 -757
-759 -758
757 758 759
-760 -336
-760 -738
336 738 760
-761 -756
-761 -759
756 759 761
-762 756
-762 759
-756 -759 762
-763 -761
-763 -762
761 762 763
-764 756
-764 -759
-756 759 764
-765 -760
-765 -764
760 764 765
-766 -743
-766 765
743 -765 766
-767 743
-767 -765
-743 765 767
-768 -766
-768 -767
766 767 768
-769 -743
-769 -765
743 765 769
-770 -747
-770 -769
747 769 770
-771 747
-771 769
-747 -769 771
-772 -770
-772 -771
770 771 772
-773 -747
-773 769
747 -769 773
-774 -751
-774 -773
751 773 774
-775 751
-775 773
-751 -773 775
-776 -774
-776 -775
774 775 776
-777 -751
-777 773
751 -773 777
-778 -755
-778 -777
755 777 778
-779 755
-779 777
-755 -777 779
-780 -778
-780 -779
778 779 780
-781 -755
-781 777
755 -777 781
-782 339
-782 -763
-339 763 782
-783 -339
-783 763
339 -763 783
-784 -782
-784 -783
782 783 784
-785 -339
-785 -763
339 763 785
-786 -781
-786 -784
781 784 786
-787 781
-787 784
-781 -784 787
-788 -786
-788 -787
786 787 788
-789 781
-789 -784
-781 784 789
-790 -785
-790 -789
785 789 790
-791 -768
-791 790
768 -790 791
-792 768
-792 -790
-768 790 792
-793 -791
-793 -792
791 792 793
-794 -768
-794 -790
768 790 794
-795 -772
-795 -794
772 794 795
-796 772
-796 794
-772 -794 796
-797 -795
-797 -796
795 796 797
-798 -772
-798 794
772 -794 798
-799 -776
-799 -798
776 798 799
-800 776
-800 798
-776 -798 800
-801 -799
-801 -800
799 800 801
-802 -776
-802 798
776 -798 802
-803 -780
-803 -802
780 802 803
-804 780
-804 802
-780 -802 804
-805 -803
-805 -804
803 804 805
-806 -780
-806 802
780 -802 806
-807 342
-807 -788
-342 788 807
-808 -342
-808 788
342 -788 808
-809 -807
-809 -808
807 808 809
-810 -342
-810 -788
342 788 810
-811 -806
-811 -809
806 809 811
-812 806
-812 809
-806 -809 812
-813 -811
-813 -812
811 812 813
-814 806
-814 -809
-806 809 814
-815 -810
-815 -814
810 814 815
-816 -793
-816 815
793 -815 816
-817 793
-817 -815
-793 815 817
-818 -816
-818 -817
816 817 818
-819 -793
-819 -815
793 815 819
-820 -797
-820 -819
797 819 820
-821 797
-821 819
-797 -819 821
-822 -820
-822 -821
820 821 822
-823 -797
-823 819
797 -819 823
-824 -801
-824 -823
801 823 824
-825 801
-825 823
-801 -823 825
-826 -824
-826 -825
824 825 826
-827 -801
-827 823
801 -823 827
-828 -805
-828 -827
805 827 828
-829 805
-829 827
-805 -827 829
-830 -828
-830 -829
828 829 830
-831 -805
-831 827
805 -827 831
-832 345
-832 -813
-345 813 832
-833 -345
-833 813
345 -813 833
-834 -832
-834 -833
832 833 834
-835 -345
-835 -813
345 813 835
-836 -831
-836 -834
831 834 836
-837 831
-837 834
-831 -834 837
-838 -836
-838 -837
836 837 838
-839 831
-839 -834
-831 834 839
-840 -835
-840 -839
835 839 840
-841 -818
-841 840
818 -840 841
-842 818
-842 -840
-818 840 842
-843 -841
-843 -842
841 842 843
-844 -818
-844 -840
818 840 844
-845 -822
-845 -844
822 844 845
-846 822
-846 844
-822 -844 846
-847 -845
-847 -846
845 846 847
-848 -822
-848 844
822 -844 848
-849 -826
-849 -848
826 848 849
-850 826
-850 848
-826 -848 850
-851 -849
-851 -850
849 850 851
-852 -826
-852 848
826 -848 852
-853 -830
-853 -852
830 852 853
-854 830
-854 852
-830 -852 854
-855 -853
-855 -854
853 854 855
-856 -830
-856 852
830 -852 856
-857 348
-857 -838
-348 838 857
-858 -348
-858 838
348 -838 858
-859 -857
-859 -858
857 858 859
-860 -348
-860 -838
348 838 860
-861 -856
-861 -859
856 859 861
-862 856
-862 859
-856 -859 862
-863 -861
-863 -862
861 862 863
-864 856
-864 -859
-856 859 864
-865 -860
-865 -864
860 864 865
-866 -843
-866 865
843 -865 866
-867 843
-867 -865
-843 865 867
-868 -866
-868 -867
866 867 868
-869 -843
-869 -865
843 865 869
-870 -847
-870 -869
847 869 870
-871 847
-871 869
-847 -869 871
-872 -870
-872 -871
870 871 872
-873 -847
-873 869
847 -869 873
-874 -851
-874 -873
851 873 874
-875 851
-875 873
-851 -873 875
-876 -874
-876 -875
874 875 876
-877 -851
-877 873
851 -873 877
-878 -855
-878 -877
855 877 878
-879 855
-879 877
-855 -877 879
-880 -878
-880 -879
878 879 880
-881 -855
-881 877
855 -877 881
-882 351
-882 -863
-351 863 882
-883 -351
-883 863
351 -863 883
-884 -882
-884 -883
882 883 884
-885 -351
-885 -863
351 863 885
-886 -881
-886 -884
881 884 886
-887 881
-887 884
-881 -884 887
-888 -886
-888 -887
886 887 888
-889 881
-889 -884
-881 884 889
-890 -885
-890 -889
885 889 890
-891 -868
-891 890
868 -890 891
-892 868
-892 -890
-868 890 892
-893 -891
-893 -892
891 892 893
-894 -868
-894 -890
868 890 894
-895 -872
-895 -894
872 894 895
-896 872
-896 894
-872 -894 896
-897 -895
-897 -896
895 896 897
-898 -872
-898 894
872 -894 898
-899 -876
-899 -898
876 898 899
-900 876
-900 898
-876 -898 900
-901 -899
-901 -900
899 900 901
-902 -876
-902 898
876 -898 902
-903 -880
-903 -902
880 902 903
-904 880
-904 902
-880 -902 904
-905 -903
-905 -904
903 904 905
-906 -880
-906 902
880 -902 906
-907 354
-907 -888
-354 888 907
-908 -354
-908 888
354 -888 908
-909 -907
-909 -908
907 908 909
-910 -354
-910 -888
354 888 910
-911 -906
-911 -909
906 909 911
-912 906
-912 909
-906 -909 912
-913 -911
-913 -912
911 912 913
-914 906
-914 -909
-906 909 914
-915 -910
-915 -914
910 914 915
-916 -893
-916 915
893 -915 916
-917 893
-917 -915
-893 915 917
-918 -916
-918 -917
916 917 918
-919 -893
-919 -915
893 915 919
-920 -897
-920 -919
897 919 920
-921 897
-921 919
-897 -919 921
-922 -920
-922 -921
920 921 922
-923 -897
-923 919
897 -919 923
-924 -901
-924 -923
901 923 924
-925 901
-925 923
-901 -923 925
-926 -924
-926 -925
924 925 926
-927 -901
-927 923
901 -923 927
-928 -905
-928 -927
905 927 928
-929 905
-929 927
-905 -927 929
-930 -928
-930 -929
928 929 930
-931 -905
-931 927
905 -927 931
-932 357
-932 -913
-357 913 932
-933 -357
-933 913
357 -913 933
-934 -932
-934 -933
932 933 934
-935 -357
-935 -913
357 913 935
-936 -931
-936 -934
931 934 936
-937 931
-937 934
-931 -934 937
-938 -936
-938 -937
936 937 938
-939 931
-939 -934
-931 934 939
-940 -935
-940 -939
935 939 940
-941 -918
-941 940
918 -940 941
-942 918
-942 -940
-918 940 942
-943 -941
-943 -942
941 942 943
-944 -918
-944 -940
918 940 944
-945 -922
-945 -944
922 944 945
-946 922
-946 944
-922 -944 946
-947 -945
-947 -946
945 946 947
-948 -922
-948 944
922 -944 948
-949 -926
-949 -948
926 948 949
-950 926
-950 948
-926 -948 950
-951 -949
-951 -950
949 950 951
-952 -926
-952 948
926 -948 952
-953 -930
-953 -952
930 952 953
-954 930
-954 952
-930 -952 954
-955 -953
-955 -954
953 954 955
-956 -930
-956 952
930 -952 956
-957 360
-957 -938
-360 938 957
-958 -360
-958 938
360 -938 958
-959 -957
-959 -958
957 958 959
-960 -360
-960 -938
360 938 960
-961 -956
-961 -959
956 959 961
-962 956
-962 959
-956 -959 962
-963 -961
-963 -962
961 962 963
-964 956
-964 -959
-956 959 964
-965 -960
-965 -964
960 964 965
-966 -943
-966 965
943 -965 966
-967 943
-967 -965
-943 965 967
-968 -966
-968 -967
966 967 968
-969 -943
-969 -965
943 965 969
-970 -947
-970 -969
947 969 970
-971 947
-971 969
-947 -969 971
-972 -970
-972 -971
970 971 972
-973 -947
-973 969
947 -969 973
-974 -951
-974 -973
951 973 974
-975 951
-975 973
-951 -973 975
-976 -974
-976 -975
974 975 976
-977 -951
-977 973
951 -973 977
-978 -955
-978 -977
955 977 978
-979 955
-979 977
-955 -977 979
-980 -978
-980 -979
978 979 980
-981 -955
-981 977
955 -977 981
-982 972
-982 976
-972 -976 982
-983 980
-983 982
-980 -982 983
-984 -963
-984 -968
963 968 984
-985 983
-985 -984
-983 984 985
-986 276
-986 282
-276 -282 986
-987 285
-987 288
-285 -288 987
-988 294
-988 297
-294 -297 988
-989 300
-989 303
-300 -303 989
-990 306
-990 309
-306 -309 990
-991 312
-991 318
-312 -318 991
-992 321
-992 324
-321 -324 992
-993 327
-993 330
-327 -330 993
-994 333
-994 336
-333 -336 994
-995 339
-995 342
-339 -342 995
-996 345
-996 348
-345 -348 996
-997 351
-997 354
-351 -354 997
-998 357
-998 360
-357 -360 998
-999 986
-999 987
-986 -987 999
-1000 988
-1000 989
-988 -989 1000
-1001 990
-1001 991
-990 -991 1001
-1002 992
-1002 993
-992 -993 1002
-1003 994
-1003 995
-994 -995 1003
-1004 996
-1004 997
-996 -997 1004
-1005 999
-1005 1000
-999 -1000 1005
-1006 1001
-1006 1002
-1001 -1002 1006
-1007 1003
-1007 1004
-1003 -1004 1007
-1008 1005
-1008 1006
-1005 -1006 1008
-1009 998
-1009 1007
-998 -1007 1009
-1010 1008
-1010 1009
-1008 -1009 1010
-1011 985
-1011 -1010
-985 1010 1011
1011
